
Gurobi 11.0.1 (win64) logging started Thu May 16 18:41:20 2024

Set parameter LogFile to value "output/solver_log9.txt"
Gurobi Optimizer version 11.0.1 build v11.0.1rc0 (win64 - Windows 11.0 (22631.2))

CPU model: 11th Gen Intel(R) Core(TM) i7-1165G7 @ 2.80GHz, instruction set [SSE2|AVX|AVX2|AVX512]
Thread count: 4 physical cores, 8 logical processors, using up to 8 threads

Optimize a model with 5298 rows, 1317 columns and 99565 nonzeros
Model fingerprint: 0x3d3b71cf
Variable types: 568 continuous, 749 integer (749 binary)
Coefficient statistics:
  Matrix range     [4e-01, 1e+05]
  Objective range  [1e+00, 1e+02]
  Bounds range     [1e+00, 1e+00]
  RHS range        [1e-02, 1e+05]

User MIP start did not produce a new incumbent solution

Presolve removed 920 rows and 493 columns
Presolve time: 0.12s
Presolved: 4378 rows, 824 columns, 83683 nonzeros
Variable types: 523 continuous, 301 integer (297 binary)

Root relaxation: objective 4.969620e+04, 2492 iterations, 0.20 seconds (0.38 work units)
Another try with MIP start

    Nodes    |    Current Node    |     Objective Bounds      |     Work
 Expl Unexpl |  Obj  Depth IntInf | Incumbent    BestBd   Gap | It/Node Time

H    0     0                    39605.498575 49696.1955  25.5%     -    0s
     0     0 49696.1955    0   73 39605.4986 49696.1955  25.5%     -    0s
H    0     0                    40156.153855 49696.1955  23.8%     -    0s
     0     0 48955.2499    0   73 40156.1539 48955.2499  21.9%     -    0s
     0     0 48712.3753    0   73 40156.1539 48712.3753  21.3%     -    0s
     0     0 48712.3753    0   72 40156.1539 48712.3753  21.3%     -    1s
     0     0 48635.6666    0   82 40156.1539 48635.6666  21.1%     -    1s
     0     0 48635.6666    0   88 40156.1539 48635.6666  21.1%     -    1s
     0     0 48635.6666    0   88 40156.1539 48635.6666  21.1%     -    1s
     0     0 48264.5711    0   77 40156.1539 48264.5711  20.2%     -    1s
     0     0 48207.0243    0   83 40156.1539 48207.0243  20.0%     -    1s
     0     0 48168.0245    0   83 40156.1539 48168.0245  20.0%     -    1s
     0     0 48157.5357    0   76 40156.1539 48157.5357  19.9%     -    1s
     0     0 48156.9830    0   80 40156.1539 48156.9830  19.9%     -    2s
     0     0 47954.4303    0   91 40156.1539 47954.4303  19.4%     -    2s
     0     0 47865.2467    0   99 40156.1539 47865.2467  19.2%     -    2s
     0     0 47865.2467    0  101 40156.1539 47865.2467  19.2%     -    2s
     0     0 47865.2467    0   97 40156.1539 47865.2467  19.2%     -    2s
     0     0 47865.2467    0   97 40156.1539 47865.2467  19.2%     -    2s
     0     0 47863.9500    0   91 40156.1539 47863.9500  19.2%     -    2s
     0     0 47764.1486    0   90 40156.1539 47764.1486  18.9%     -    2s
     0     0 47764.1486    0   89 40156.1539 47764.1486  18.9%     -    2s
     0     0 47764.1486    0   88 40156.1539 47764.1486  18.9%     -    2s
     0     0 47752.2818    0   86 40156.1539 47752.2818  18.9%     -    2s
     0     0 47752.2818    0   85 40156.1539 47752.2818  18.9%     -    3s
     0     0 47752.2818    0   88 40156.1539 47752.2818  18.9%     -    3s
     0     0 47752.2818    0   88 40156.1539 47752.2818  18.9%     -    3s
     0     0 47752.2818    0   91 40156.1539 47752.2818  18.9%     -    3s
     0     0 47752.2818    0   93 40156.1539 47752.2818  18.9%     -    3s
     0     0 47752.2818    0   97 40156.1539 47752.2818  18.9%     -    3s
     0     0 47752.2818    0   96 40156.1539 47752.2818  18.9%     -    3s
     0     0 47752.2818    0   85 40156.1539 47752.2818  18.9%     -    3s
     0     0 47752.2818    0   89 40156.1539 47752.2818  18.9%     -    3s
     0     0 47752.2818    0   92 40156.1539 47752.2818  18.9%     -    3s
     0     0 47752.2818    0   99 40156.1539 47752.2818  18.9%     -    3s
     0     0 47752.2818    0   92 40156.1539 47752.2818  18.9%     -    3s
     0     0 47752.2818    0   93 40156.1539 47752.2818  18.9%     -    3s
     0     0 47752.2818    0   94 40156.1539 47752.2818  18.9%     -    3s
     0     0 47752.2818    0   94 40156.1539 47752.2818  18.9%     -    3s
     0     0 47752.2818    0   95 40156.1539 47752.2818  18.9%     -    3s
     0     0 47752.2818    0   97 40156.1539 47752.2818  18.9%     -    4s
     0     0 47752.2818    0   98 40156.1539 47752.2818  18.9%     -    4s
     0     0 47752.2818    0   95 40156.1539 47752.2818  18.9%     -    4s
     0     0 47752.2818    0   99 40156.1539 47752.2818  18.9%     -    4s
     0     0 47752.2818    0   97 40156.1539 47752.2818  18.9%     -    4s
     0     0 47727.0619    0   97 40156.1539 47727.0619  18.9%     -    4s
     0     2 47727.0619    0   97 40156.1539 47727.0619  18.9%     -    4s
     3     8 43789.5495    2   76 40156.1539 46713.3813  16.3%  1863    5s
H  121    48                    40156.267906 45392.6573  13.0%   557    8s
   182    73 40918.2288    7   47 40156.2679 45200.2930  12.6%   583   10s
H  194    74                    40156.411310 45200.2930  12.6%   588   10s
   524   196 40185.1764   66   38 40156.4113 43158.0915  7.47%   443   15s
   875   162 40211.2411   10   60 40156.4113 40905.8658  1.87%   408   21s
H  899   162                    40170.615132 40851.1190  1.69%   406   21s
  3044  1037 40177.3775  359    4 40170.6151 40187.4136  0.04%   142   31s
 18859  1043 40177.2788 4245    3 40170.6151 40187.4136  0.04%  22.9   39s
H18861   938                    40178.017847 40187.4136  0.02%  22.9   39s
 19385   970 40178.5334   78   97 40178.0178 40187.4136  0.02%  22.4   43s
 19395   980 40187.4136   15   89 40178.0178 40187.4136  0.02%  22.7   45s
 19561   995 40187.4136   28   58 40178.0178 40187.4136  0.02%  27.3   50s
 19835   922 40187.4136   26   45 40178.0178 40187.4136  0.02%  32.0   55s
 20389   875 40182.3870   56   39 40178.0178 40187.3998  0.02%  36.2   60s

Cutting planes:
  Gomory: 3
  Implied bound: 9
  MIR: 51
  RLT: 2

Explored 20395 nodes (756865 simplex iterations) in 60.03 seconds (111.80 work units)
Thread count was 8 (of 8 available processors)

Solution count 6: 40178 40170.6 40156.4 ... 39605.5

Time limit reached
Best objective 4.017801784722e+04, best bound 4.018739983638e+04, gap 0.0234%
